<number of tasks>
50

<cycle time>
1000

<order strength>
0.196


<task times>
1 66
2 177
3 280
4 147
5 267
6 51
7 35
8 44
9 132
10 232
11 213
12 146
13 31
14 154
15 221
16 114
17 439
18 174
19 303
20 607
21 169
22 399
23 464
24 96
25 364
26 81
27 230
28 169
29 215
30 408
31 263
32 56
33 322
34 236
35 192
36 118
37 202
38 40
39 67
40 337
41 129
42 82
43 339
44 373
45 495
46 213
47 82
48 188
49 156
50 551

<precedence relations>
1,8
2,6
2,9
3,7
4,46
6,10
7,11
8,12
9,13
9,14
9,15
9,16
10,17
11,19
12,18
13,20
14,21
14,22
14,45
15,23
15,24
16,22
17,28
18,26
19,25
19,46
20,27
20,48
21,29
21,35
24,29
25,31
26,30
27,32
28,33
28,35
28,44
29,34
30,37
31,36
32,38
33,39
34,40
35,41
36,42
37,44
38,45
39,43
40,44
41,46
41,47
41,48
41,49
41,50

<end>
